
Gurobi 5.6.3 (win64) logging started 10/07/14 10:26:24


Gurobi 5.6.3 (win64) logging started 10/07/14 10:26:41


Gurobi 5.6.3 (win64) logging started 10/07/14 10:27:08


Gurobi 5.6.3 (win64) logging started 10/07/14 10:27:50

